(set-info :smt-lib-version 2.6)
(set-logic QF_SLIA)
(set-info :source |
Generated by: Andrew Reynolds
Generated on: 2018-04-25
Generator: PyEx, converted to v2.6 by CVC4
Application: Symbolic Execution of Python Programs
Target solver: CVC4, Z3, Z3str2
Publications: "Scaling Up DPLL(T) String Solvers Using Context-Dependent Simplification" by A. Reynolds, M. Woo, C. Barrett, D. Brumley, T. Liang, and C. Tinelli, CAV 2017.
|)
(set-info :license "https://creativecommons.org/licenses/by/4.0/")
(set-info :category "industrial")
(set-info :status unknown)



(declare-fun uri () String)
(assert (and (and (and (and (and (and (and (and (and (and (and (and (and (and (and (and (and (and (and (and (and (and (and (and (and (and (and (and (and (and (and (and (and (and (and (and (and (and (and (and (and (and (and (and (and (and (and (and (and (and (and (and (and (and (and (and (and (and (and (and (and (and (and (and (and (and (and (and (and (and (and (and (and (and (and (and (and (and (and (and (and (and (and (and (and (and (and (and (and (and (and (and (and (and (and (and (and (and (and (and (and (and (and (and (and (and (and (and (and (and (and (and (and (and (and (and (and (and (and (and (and (and (and (and (and (and (and (and (and (and (and (and (and (and (and (and (and (and (and (and (and (and (and (and (and (and (and (and (and (and (and (and (and (and (and (and (and (and (and (and (and (and (and (and (and (and (and (and (and (and (and (and (and (and (and (and (and (and (and (and (and (and (and (and (and (and (and (and (and (and (and (and (and (and (and (and (and (and (and (and (and (and (and (and (and (and (and (and (and (and (and (and (and (and (and (and (and (and (and (and (and (and (and (and (and (and (and (and (and (and (and (and (and (and (and (and (and (and (and (and (and (and (and (and (and (and (and (and (and (and (and (and (and (and (and (and (and (and (and (and (and (and (and (and (and (and (and (and (and (and (and (and (and (and (and (and (and (and (and (and (and (and (and (and (and (and (and (and (and (and (and (and (and (and (and (and (and (and (and (and (and (and (and (and (and (and (and (and (and (and (and (and (and (and (and (and (and (and (and (and (and (and (and (and (and (and (and (and (and (and (and (and (and (and (and (and (and (and (and (and (and (and (and (and (and (and (and (and (and (and (and (and (and (and (and (and (and (and (and (and (and (and (and (and (and (and (and (and (and (and (and (and (and (and (and (and (and (and (and (and (and (and (and (and (and (and (and (and (and (and (and (and (and (and (and (and (and (and (and (and (and (and (and (and (and (and (and (and (and (and (and (and (and (and (and (and (and (and (and (and (and (and (and (and (and (and (and (and (and (and (and (and (and (and (and (and (and (and (and (and (and (and (and (and (and (and (and (not (not (not (= (ite (str.contains (str.substr (str.substr (str.substr uri 10 (- (str.len uri) 10)) 0 (- (str.indexof (str.substr uri 10 (- (str.len uri) 10)) "/" 0) 0)) 12 (- (str.len (str.substr (str.substr uri 10 (- (str.len uri) 10)) 0 (- (str.indexof (str.substr uri 10 (- (str.len uri) 10)) "/" 0) 0))) 12)) "R") 1 0) 0)))) (not (not (= (ite (str.contains (str.substr (str.substr (str.substr uri 10 (- (str.len uri) 10)) 0 (- (str.indexof (str.substr uri 10 (- (str.len uri) 10)) "/" 0) 0)) 12 (- (str.len (str.substr (str.substr uri 10 (- (str.len uri) 10)) 0 (- (str.indexof (str.substr uri 10 (- (str.len uri) 10)) "/" 0) 0))) 12)) "Q") 1 0) 0)))) (not (not (= (ite (str.contains (str.substr (str.substr (str.substr uri 10 (- (str.len uri) 10)) 0 (- (str.indexof (str.substr uri 10 (- (str.len uri) 10)) "/" 0) 0)) 12 (- (str.len (str.substr (str.substr uri 10 (- (str.len uri) 10)) 0 (- (str.indexof (str.substr uri 10 (- (str.len uri) 10)) "/" 0) 0))) 12)) "P") 1 0) 0)))) (not (not (= (ite (str.contains (str.substr (str.substr (str.substr uri 10 (- (str.len uri) 10)) 0 (- (str.indexof (str.substr uri 10 (- (str.len uri) 10)) "/" 0) 0)) 12 (- (str.len (str.substr (str.substr uri 10 (- (str.len uri) 10)) 0 (- (str.indexof (str.substr uri 10 (- (str.len uri) 10)) "/" 0) 0))) 12)) "O") 1 0) 0)))) (not (not (= (ite (str.contains (str.substr (str.substr (str.substr uri 10 (- (str.len uri) 10)) 0 (- (str.indexof (str.substr uri 10 (- (str.len uri) 10)) "/" 0) 0)) 12 (- (str.len (str.substr (str.substr uri 10 (- (str.len uri) 10)) 0 (- (str.indexof (str.substr uri 10 (- (str.len uri) 10)) "/" 0) 0))) 12)) "N") 1 0) 0)))) (not (not (= (ite (str.contains (str.substr (str.substr (str.substr uri 10 (- (str.len uri) 10)) 0 (- (str.indexof (str.substr uri 10 (- (str.len uri) 10)) "/" 0) 0)) 12 (- (str.len (str.substr (str.substr uri 10 (- (str.len uri) 10)) 0 (- (str.indexof (str.substr uri 10 (- (str.len uri) 10)) "/" 0) 0))) 12)) "M") 1 0) 0)))) (not (not (= (ite (str.contains (str.substr (str.substr (str.substr uri 10 (- (str.len uri) 10)) 0 (- (str.indexof (str.substr uri 10 (- (str.len uri) 10)) "/" 0) 0)) 12 (- (str.len (str.substr (str.substr uri 10 (- (str.len uri) 10)) 0 (- (str.indexof (str.substr uri 10 (- (str.len uri) 10)) "/" 0) 0))) 12)) "L") 1 0) 0)))) (not (not (= (ite (str.contains (str.substr (str.substr (str.substr uri 10 (- (str.len uri) 10)) 0 (- (str.indexof (str.substr uri 10 (- (str.len uri) 10)) "/" 0) 0)) 12 (- (str.len (str.substr (str.substr uri 10 (- (str.len uri) 10)) 0 (- (str.indexof (str.substr uri 10 (- (str.len uri) 10)) "/" 0) 0))) 12)) "K") 1 0) 0)))) (not (not (= (ite (str.contains (str.substr (str.substr (str.substr uri 10 (- (str.len uri) 10)) 0 (- (str.indexof (str.substr uri 10 (- (str.len uri) 10)) "/" 0) 0)) 12 (- (str.len (str.substr (str.substr uri 10 (- (str.len uri) 10)) 0 (- (str.indexof (str.substr uri 10 (- (str.len uri) 10)) "/" 0) 0))) 12)) "J") 1 0) 0)))) (not (not (= (ite (str.contains (str.substr (str.substr (str.substr uri 10 (- (str.len uri) 10)) 0 (- (str.indexof (str.substr uri 10 (- (str.len uri) 10)) "/" 0) 0)) 12 (- (str.len (str.substr (str.substr uri 10 (- (str.len uri) 10)) 0 (- (str.indexof (str.substr uri 10 (- (str.len uri) 10)) "/" 0) 0))) 12)) "I") 1 0) 0)))) (not (not (= (ite (str.contains (str.substr (str.substr (str.substr uri 10 (- (str.len uri) 10)) 0 (- (str.indexof (str.substr uri 10 (- (str.len uri) 10)) "/" 0) 0)) 12 (- (str.len (str.substr (str.substr uri 10 (- (str.len uri) 10)) 0 (- (str.indexof (str.substr uri 10 (- (str.len uri) 10)) "/" 0) 0))) 12)) "H") 1 0) 0)))) (not (not (= (ite (str.contains (str.substr (str.substr (str.substr uri 10 (- (str.len uri) 10)) 0 (- (str.indexof (str.substr uri 10 (- (str.len uri) 10)) "/" 0) 0)) 12 (- (str.len (str.substr (str.substr uri 10 (- (str.len uri) 10)) 0 (- (str.indexof (str.substr uri 10 (- (str.len uri) 10)) "/" 0) 0))) 12)) "G") 1 0) 0)))) (not (not (= (ite (str.contains (str.substr (str.substr (str.substr uri 10 (- (str.len uri) 10)) 0 (- (str.indexof (str.substr uri 10 (- (str.len uri) 10)) "/" 0) 0)) 12 (- (str.len (str.substr (str.substr uri 10 (- (str.len uri) 10)) 0 (- (str.indexof (str.substr uri 10 (- (str.len uri) 10)) "/" 0) 0))) 12)) "F") 1 0) 0)))) (not (not (= (ite (str.contains (str.substr (str.substr (str.substr uri 10 (- (str.len uri) 10)) 0 (- (str.indexof (str.substr uri 10 (- (str.len uri) 10)) "/" 0) 0)) 12 (- (str.len (str.substr (str.substr uri 10 (- (str.len uri) 10)) 0 (- (str.indexof (str.substr uri 10 (- (str.len uri) 10)) "/" 0) 0))) 12)) "E") 1 0) 0)))) (not (not (= (ite (str.contains (str.substr (str.substr (str.substr uri 10 (- (str.len uri) 10)) 0 (- (str.indexof (str.substr uri 10 (- (str.len uri) 10)) "/" 0) 0)) 12 (- (str.len (str.substr (str.substr uri 10 (- (str.len uri) 10)) 0 (- (str.indexof (str.substr uri 10 (- (str.len uri) 10)) "/" 0) 0))) 12)) "D") 1 0) 0)))) (not (not (= (ite (str.contains (str.substr (str.substr (str.substr uri 10 (- (str.len uri) 10)) 0 (- (str.indexof (str.substr uri 10 (- (str.len uri) 10)) "/" 0) 0)) 12 (- (str.len (str.substr (str.substr uri 10 (- (str.len uri) 10)) 0 (- (str.indexof (str.substr uri 10 (- (str.len uri) 10)) "/" 0) 0))) 12)) "C") 1 0) 0)))) (not (not (= (ite (str.contains (str.substr (str.substr (str.substr uri 10 (- (str.len uri) 10)) 0 (- (str.indexof (str.substr uri 10 (- (str.len uri) 10)) "/" 0) 0)) 12 (- (str.len (str.substr (str.substr uri 10 (- (str.len uri) 10)) 0 (- (str.indexof (str.substr uri 10 (- (str.len uri) 10)) "/" 0) 0))) 12)) "B") 1 0) 0)))) (not (not (= (ite (str.contains (str.substr (str.substr (str.substr uri 10 (- (str.len uri) 10)) 0 (- (str.indexof (str.substr uri 10 (- (str.len uri) 10)) "/" 0) 0)) 12 (- (str.len (str.substr (str.substr uri 10 (- (str.len uri) 10)) 0 (- (str.indexof (str.substr uri 10 (- (str.len uri) 10)) "/" 0) 0))) 12)) "A") 1 0) 0)))) (not (not (= (ite (not (= (str.indexof (str.substr (str.substr (str.substr uri 10 (- (str.len uri) 10)) 0 (- (str.indexof (str.substr uri 10 (- (str.len uri) 10)) "/" 0) 0)) 12 (- (str.len (str.substr (str.substr uri 10 (- (str.len uri) 10)) 0 (- (str.indexof (str.substr uri 10 (- (str.len uri) 10)) "/" 0) 0))) 12)) ":" 0) (- 1))) 1 0) 0)))) (not (not (= (ite (= (str.at (str.substr (str.substr (str.substr uri 10 (- (str.len uri) 10)) 0 (- (str.indexof (str.substr uri 10 (- (str.len uri) 10)) "/" 0) 0)) 12 (- (str.len (str.substr (str.substr uri 10 (- (str.len uri) 10)) 0 (- (str.indexof (str.substr uri 10 (- (str.len uri) 10)) "/" 0) 0))) 12)) 0) "[") 1 0) 0)))) (not (= (ite (not (= (str.len (str.substr (str.substr (str.substr uri 10 (- (str.len uri) 10)) 0 (- (str.indexof (str.substr uri 10 (- (str.len uri) 10)) "/" 0) 0)) 12 (- (str.len (str.substr (str.substr uri 10 (- (str.len uri) 10)) 0 (- (str.indexof (str.substr uri 10 (- (str.len uri) 10)) "/" 0) 0))) 12))) 0)) 1 0) 0))) (not (not (= (ite (str.contains (str.substr (str.substr (str.substr uri 10 (- (str.len uri) 10)) 0 (- (str.indexof (str.substr uri 10 (- (str.len uri) 10)) "/" 0) 0)) 12 (- (str.len (str.substr (str.substr uri 10 (- (str.len uri) 10)) 0 (- (str.indexof (str.substr uri 10 (- (str.len uri) 10)) "/" 0) 0))) 12)) ",") 1 0) 0)))) (not (not (= (ite (= (str.len (str.substr (str.substr (str.substr uri 10 (- (str.len uri) 10)) 0 (- (str.indexof (str.substr uri 10 (- (str.len uri) 10)) "/" 0) 0)) 12 (- (str.len (str.substr (str.substr uri 10 (- (str.len uri) 10)) 0 (- (str.indexof (str.substr uri 10 (- (str.len uri) 10)) "/" 0) 0))) 12))) 0) 1 0) 0)))) (not (not (= (ite (str.contains (str.substr (str.substr (str.substr uri 10 (- (str.len uri) 10)) 0 (- (str.indexof (str.substr uri 10 (- (str.len uri) 10)) "/" 0) 0)) 0 (- 11 0)) "%") 1 0) 0)))) (not (not (= (ite (str.contains (str.substr (str.substr (str.substr uri 10 (- (str.len uri) 10)) 0 (- (str.indexof (str.substr uri 10 (- (str.len uri) 10)) "/" 0) 0)) 0 (- 11 0)) "+") 1 0) 0)))) (not (= (ite (not (= (str.len (str.substr (str.substr (str.substr uri 10 (- (str.len uri) 10)) 0 (- (str.indexof (str.substr uri 10 (- (str.len uri) 10)) "/" 0) 0)) 0 (- 11 0))) 0)) 1 0) 0))) (not (not (= (ite (str.contains (str.substr (str.substr (str.substr uri 10 (- (str.len uri) 10)) 0 (- (str.indexof (str.substr uri 10 (- (str.len uri) 10)) "/" 0) 0)) 0 (- 11 0)) ":") 1 0) 0)))) (not (not (= (ite (= (str.len (str.substr (str.substr (str.substr uri 10 (- (str.len uri) 10)) 0 (- (str.indexof (str.substr uri 10 (- (str.len uri) 10)) "/" 0) 0)) 0 (- 11 0))) 0) 1 0) 0)))) (not (not (= (ite (str.contains (str.substr (str.substr (str.substr uri 10 (- (str.len uri) 10)) 0 (- (str.indexof (str.substr uri 10 (- (str.len uri) 10)) "/" 0) 0)) 0 (- 11 0)) ":") 1 0) 0)))) (not (not (= (ite (str.contains (str.substr (str.substr (str.substr uri 10 (- (str.len uri) 10)) 0 (- (str.indexof (str.substr uri 10 (- (str.len uri) 10)) "/" 0) 0)) 0 (- 11 0)) "@") 1 0) 0)))) (not (= (ite (str.contains (str.substr (str.substr uri 10 (- (str.len uri) 10)) 0 (- (str.indexof (str.substr uri 10 (- (str.len uri) 10)) "/" 0) 0)) "@") 1 0) 0))) (not (= (ite (not (= (str.len (str.substr (str.substr uri 10 (- (str.len uri) 10)) (+ (str.indexof (str.substr uri 10 (- (str.len uri) 10)) "/" 0) 1) (- (str.len (str.substr uri 10 (- (str.len uri) 10))) (+ (str.indexof (str.substr uri 10 (- (str.len uri) 10)) "/" 0) 1)))) 0)) 1 0) 0))) (not (not (= (ite (= (str.len (str.substr (str.substr uri 10 (- (str.len uri) 10)) (+ (str.indexof (str.substr uri 10 (- (str.len uri) 10)) "/" 0) 1) (- (str.len (str.substr uri 10 (- (str.len uri) 10))) (+ (str.indexof (str.substr uri 10 (- (str.len uri) 10)) "/" 0) 1)))) 0) 1 0) 0)))) (not (= (ite (str.contains (str.substr uri 10 (- (str.len uri) 10)) "/") 1 0) 0))) (not (not (= (ite (= (str.len (str.substr uri 10 (- (str.len uri) 10))) 0) 1 0) 0)))) (not (not (= (ite (str.contains (str.substr uri 10 (- (str.len uri) 10)) ".sock") 1 0) 0)))) (not (= (ite (not (= (str.len (str.substr uri 10 (- (str.len uri) 10))) 0)) 1 0) 0))) (not (= (ite (str.prefixof "mongodb://" uri) 1 0) 0))) (not (= (ite (str.prefixof "mongodb://" uri) 1 0) 0))) (not (= (ite (str.contains uri "://") 1 0) 0))) (>= 10 0)) (>= (- (str.len uri) 10) 0)) (>= 10 0)) (>= (- (str.len uri) 10) 0)) (>= 0 0)) (>= (- (str.indexof (str.substr uri 10 (- (str.len uri) 10)) "/" 0) 0) 0)) (>= 10 0)) (>= (- (str.len uri) 10) 0)) (>= 10 0)) (>= (- (str.len uri) 10) 0)) (>= 0 0)) (>= (- (str.indexof (str.substr uri 10 (- (str.len uri) 10)) "/" 0) 0) 0)) (>= 12 0)) (>= (- (str.len (str.substr (str.substr uri 10 (- (str.len uri) 10)) 0 (- (str.indexof (str.substr uri 10 (- (str.len uri) 10)) "/" 0) 0))) 12) 0)) (>= 10 0)) (>= (- (str.len uri) 10) 0)) (>= 10 0)) (>= (- (str.len uri) 10) 0)) (>= 0 0)) (>= (- (str.indexof (str.substr uri 10 (- (str.len uri) 10)) "/" 0) 0) 0)) (>= 10 0)) (>= (- (str.len uri) 10) 0)) (>= 10 0)) (>= (- (str.len uri) 10) 0)) (>= 0 0)) (>= (- (str.indexof (str.substr uri 10 (- (str.len uri) 10)) "/" 0) 0) 0)) (>= 12 0)) (>= (- (str.len (str.substr (str.substr uri 10 (- (str.len uri) 10)) 0 (- (str.indexof (str.substr uri 10 (- (str.len uri) 10)) "/" 0) 0))) 12) 0)) (>= 10 0)) (>= (- (str.len uri) 10) 0)) (>= 10 0)) (>= (- (str.len uri) 10) 0)) (>= 0 0)) (>= (- (str.indexof (str.substr uri 10 (- (str.len uri) 10)) "/" 0) 0) 0)) (>= 10 0)) (>= (- (str.len uri) 10) 0)) (>= 10 0)) (>= (- (str.len uri) 10) 0)) (>= 0 0)) (>= (- (str.indexof (str.substr uri 10 (- (str.len uri) 10)) "/" 0) 0) 0)) (>= 12 0)) (>= (- (str.len (str.substr (str.substr uri 10 (- (str.len uri) 10)) 0 (- (str.indexof (str.substr uri 10 (- (str.len uri) 10)) "/" 0) 0))) 12) 0)) (>= 10 0)) (>= (- (str.len uri) 10) 0)) (>= 10 0)) (>= (- (str.len uri) 10) 0)) (>= 0 0)) (>= (- (str.indexof (str.substr uri 10 (- (str.len uri) 10)) "/" 0) 0) 0)) (>= 10 0)) (>= (- (str.len uri) 10) 0)) (>= 10 0)) (>= (- (str.len uri) 10) 0)) (>= 0 0)) (>= (- (str.indexof (str.substr uri 10 (- (str.len uri) 10)) "/" 0) 0) 0)) (>= 12 0)) (>= (- (str.len (str.substr (str.substr uri 10 (- (str.len uri) 10)) 0 (- (str.indexof (str.substr uri 10 (- (str.len uri) 10)) "/" 0) 0))) 12) 0)) (>= 10 0)) (>= (- (str.len uri) 10) 0)) (>= 10 0)) (>= (- (str.len uri) 10) 0)) (>= 0 0)) (>= (- (str.indexof (str.substr uri 10 (- (str.len uri) 10)) "/" 0) 0) 0)) (>= 10 0)) (>= (- (str.len uri) 10) 0)) (>= 10 0)) (>= (- (str.len uri) 10) 0)) (>= 0 0)) (>= (- (str.indexof (str.substr uri 10 (- (str.len uri) 10)) "/" 0) 0) 0)) (>= 12 0)) (>= (- (str.len (str.substr (str.substr uri 10 (- (str.len uri) 10)) 0 (- (str.indexof (str.substr uri 10 (- (str.len uri) 10)) "/" 0) 0))) 12) 0)) (>= 10 0)) (>= (- (str.len uri) 10) 0)) (>= 10 0)) (>= (- (str.len uri) 10) 0)) (>= 0 0)) (>= (- (str.indexof (str.substr uri 10 (- (str.len uri) 10)) "/" 0) 0) 0)) (>= 10 0)) (>= (- (str.len uri) 10) 0)) (>= 10 0)) (>= (- (str.len uri) 10) 0)) (>= 0 0)) (>= (- (str.indexof (str.substr uri 10 (- (str.len uri) 10)) "/" 0) 0) 0)) (>= 12 0)) (>= (- (str.len (str.substr (str.substr uri 10 (- (str.len uri) 10)) 0 (- (str.indexof (str.substr uri 10 (- (str.len uri) 10)) "/" 0) 0))) 12) 0)) (>= 10 0)) (>= (- (str.len uri) 10) 0)) (>= 10 0)) (>= (- (str.len uri) 10) 0)) (>= 0 0)) (>= (- (str.indexof (str.substr uri 10 (- (str.len uri) 10)) "/" 0) 0) 0)) (>= 10 0)) (>= (- (str.len uri) 10) 0)) (>= 10 0)) (>= (- (str.len uri) 10) 0)) (>= 0 0)) (>= (- (str.indexof (str.substr uri 10 (- (str.len uri) 10)) "/" 0) 0) 0)) (>= 12 0)) (>= (- (str.len (str.substr (str.substr uri 10 (- (str.len uri) 10)) 0 (- (str.indexof (str.substr uri 10 (- (str.len uri) 10)) "/" 0) 0))) 12) 0)) (>= 10 0)) (>= (- (str.len uri) 10) 0)) (>= 10 0)) (>= (- (str.len uri) 10) 0)) (>= 0 0)) (>= (- (str.indexof (str.substr uri 10 (- (str.len uri) 10)) "/" 0) 0) 0)) (>= 10 0)) (>= (- (str.len uri) 10) 0)) (>= 10 0)) (>= (- (str.len uri) 10) 0)) (>= 0 0)) (>= (- (str.indexof (str.substr uri 10 (- (str.len uri) 10)) "/" 0) 0) 0)) (>= 12 0)) (>= (- (str.len (str.substr (str.substr uri 10 (- (str.len uri) 10)) 0 (- (str.indexof (str.substr uri 10 (- (str.len uri) 10)) "/" 0) 0))) 12) 0)) (>= 10 0)) (>= (- (str.len uri) 10) 0)) (>= 10 0)) (>= (- (str.len uri) 10) 0)) (>= 0 0)) (>= (- (str.indexof (str.substr uri 10 (- (str.len uri) 10)) "/" 0) 0) 0)) (>= 10 0)) (>= (- (str.len uri) 10) 0)) (>= 10 0)) (>= (- (str.len uri) 10) 0)) (>= 0 0)) (>= (- (str.indexof (str.substr uri 10 (- (str.len uri) 10)) "/" 0) 0) 0)) (>= 12 0)) (>= (- (str.len (str.substr (str.substr uri 10 (- (str.len uri) 10)) 0 (- (str.indexof (str.substr uri 10 (- (str.len uri) 10)) "/" 0) 0))) 12) 0)) (>= 10 0)) (>= (- (str.len uri) 10) 0)) (>= 10 0)) (>= (- (str.len uri) 10) 0)) (>= 0 0)) (>= (- (str.indexof (str.substr uri 10 (- (str.len uri) 10)) "/" 0) 0) 0)) (>= 10 0)) (>= (- (str.len uri) 10) 0)) (>= 10 0)) (>= (- (str.len uri) 10) 0)) (>= 0 0)) (>= (- (str.indexof (str.substr uri 10 (- (str.len uri) 10)) "/" 0) 0) 0)) (>= 12 0)) (>= (- (str.len (str.substr (str.substr uri 10 (- (str.len uri) 10)) 0 (- (str.indexof (str.substr uri 10 (- (str.len uri) 10)) "/" 0) 0))) 12) 0)) (>= 10 0)) (>= (- (str.len uri) 10) 0)) (>= 10 0)) (>= (- (str.len uri) 10) 0)) (>= 0 0)) (>= (- (str.indexof (str.substr uri 10 (- (str.len uri) 10)) "/" 0) 0) 0)) (>= 10 0)) (>= (- (str.len uri) 10) 0)) (>= 10 0)) (>= (- (str.len uri) 10) 0)) (>= 0 0)) (>= (- (str.indexof (str.substr uri 10 (- (str.len uri) 10)) "/" 0) 0) 0)) (>= 12 0)) (>= (- (str.len (str.substr (str.substr uri 10 (- (str.len uri) 10)) 0 (- (str.indexof (str.substr uri 10 (- (str.len uri) 10)) "/" 0) 0))) 12) 0)) (>= 10 0)) (>= (- (str.len uri) 10) 0)) (>= 10 0)) (>= (- (str.len uri) 10) 0)) (>= 0 0)) (>= (- (str.indexof (str.substr uri 10 (- (str.len uri) 10)) "/" 0) 0) 0)) (>= 10 0)) (>= (- (str.len uri) 10) 0)) (>= 10 0)) (>= (- (str.len uri) 10) 0)) (>= 0 0)) (>= (- (str.indexof (str.substr uri 10 (- (str.len uri) 10)) "/" 0) 0) 0)) (>= 12 0)) (>= (- (str.len (str.substr (str.substr uri 10 (- (str.len uri) 10)) 0 (- (str.indexof (str.substr uri 10 (- (str.len uri) 10)) "/" 0) 0))) 12) 0)) (>= 10 0)) (>= (- (str.len uri) 10) 0)) (>= 10 0)) (>= (- (str.len uri) 10) 0)) (>= 0 0)) (>= (- (str.indexof (str.substr uri 10 (- (str.len uri) 10)) "/" 0) 0) 0)) (>= 10 0)) (>= (- (str.len uri) 10) 0)) (>= 10 0)) (>= (- (str.len uri) 10) 0)) (>= 0 0)) (>= (- (str.indexof (str.substr uri 10 (- (str.len uri) 10)) "/" 0) 0) 0)) (>= 12 0)) (>= (- (str.len (str.substr (str.substr uri 10 (- (str.len uri) 10)) 0 (- (str.indexof (str.substr uri 10 (- (str.len uri) 10)) "/" 0) 0))) 12) 0)) (>= 10 0)) (>= (- (str.len uri) 10) 0)) (>= 10 0)) (>= (- (str.len uri) 10) 0)) (>= 0 0)) (>= (- (str.indexof (str.substr uri 10 (- (str.len uri) 10)) "/" 0) 0) 0)) (>= 10 0)) (>= (- (str.len uri) 10) 0)) (>= 10 0)) (>= (- (str.len uri) 10) 0)) (>= 0 0)) (>= (- (str.indexof (str.substr uri 10 (- (str.len uri) 10)) "/" 0) 0) 0)) (>= 12 0)) (>= (- (str.len (str.substr (str.substr uri 10 (- (str.len uri) 10)) 0 (- (str.indexof (str.substr uri 10 (- (str.len uri) 10)) "/" 0) 0))) 12) 0)) (>= 10 0)) (>= (- (str.len uri) 10) 0)) (>= 10 0)) (>= (- (str.len uri) 10) 0)) (>= 0 0)) (>= (- (str.indexof (str.substr uri 10 (- (str.len uri) 10)) "/" 0) 0) 0)) (>= 10 0)) (>= (- (str.len uri) 10) 0)) (>= 10 0)) (>= (- (str.len uri) 10) 0)) (>= 0 0)) (>= (- (str.indexof (str.substr uri 10 (- (str.len uri) 10)) "/" 0) 0) 0)) (>= 12 0)) (>= (- (str.len (str.substr (str.substr uri 10 (- (str.len uri) 10)) 0 (- (str.indexof (str.substr uri 10 (- (str.len uri) 10)) "/" 0) 0))) 12) 0)) (>= 10 0)) (>= (- (str.len uri) 10) 0)) (>= 10 0)) (>= (- (str.len uri) 10) 0)) (>= 0 0)) (>= (- (str.indexof (str.substr uri 10 (- (str.len uri) 10)) "/" 0) 0) 0)) (>= 10 0)) (>= (- (str.len uri) 10) 0)) (>= 10 0)) (>= (- (str.len uri) 10) 0)) (>= 0 0)) (>= (- (str.indexof (str.substr uri 10 (- (str.len uri) 10)) "/" 0) 0) 0)) (>= 12 0)) (>= (- (str.len (str.substr (str.substr uri 10 (- (str.len uri) 10)) 0 (- (str.indexof (str.substr uri 10 (- (str.len uri) 10)) "/" 0) 0))) 12) 0)) (>= 10 0)) (>= (- (str.len uri) 10) 0)) (>= 10 0)) (>= (- (str.len uri) 10) 0)) (>= 0 0)) (>= (- (str.indexof (str.substr uri 10 (- (str.len uri) 10)) "/" 0) 0) 0)) (>= 10 0)) (>= (- (str.len uri) 10) 0)) (>= 10 0)) (>= (- (str.len uri) 10) 0)) (>= 0 0)) (>= (- (str.indexof (str.substr uri 10 (- (str.len uri) 10)) "/" 0) 0) 0)) (>= 12 0)) (>= (- (str.len (str.substr (str.substr uri 10 (- (str.len uri) 10)) 0 (- (str.indexof (str.substr uri 10 (- (str.len uri) 10)) "/" 0) 0))) 12) 0)) (>= 10 0)) (>= (- (str.len uri) 10) 0)) (>= 10 0)) (>= (- (str.len uri) 10) 0)) (>= 0 0)) (>= (- (str.indexof (str.substr uri 10 (- (str.len uri) 10)) "/" 0) 0) 0)) (>= 10 0)) (>= (- (str.len uri) 10) 0)) (>= 10 0)) (>= (- (str.len uri) 10) 0)) (>= 0 0)) (>= (- (str.indexof (str.substr uri 10 (- (str.len uri) 10)) "/" 0) 0) 0)) (>= 12 0)) (>= (- (str.len (str.substr (str.substr uri 10 (- (str.len uri) 10)) 0 (- (str.indexof (str.substr uri 10 (- (str.len uri) 10)) "/" 0) 0))) 12) 0)) (>= 10 0)) (>= (- (str.len uri) 10) 0)) (>= 10 0)) (>= (- (str.len uri) 10) 0)) (>= 0 0)) (>= (- (str.indexof (str.substr uri 10 (- (str.len uri) 10)) "/" 0) 0) 0)) (>= 10 0)) (>= (- (str.len uri) 10) 0)) (>= 10 0)) (>= (- (str.len uri) 10) 0)) (>= 0 0)) (>= (- (str.indexof (str.substr uri 10 (- (str.len uri) 10)) "/" 0) 0) 0)) (>= 12 0)) (>= (- (str.len (str.substr (str.substr uri 10 (- (str.len uri) 10)) 0 (- (str.indexof (str.substr uri 10 (- (str.len uri) 10)) "/" 0) 0))) 12) 0)) (>= 10 0)) (>= (- (str.len uri) 10) 0)) (>= 10 0)) (>= (- (str.len uri) 10) 0)) (>= 0 0)) (>= (- (str.indexof (str.substr uri 10 (- (str.len uri) 10)) "/" 0) 0) 0)) (>= 10 0)) (>= (- (str.len uri) 10) 0)) (>= 10 0)) (>= (- (str.len uri) 10) 0)) (>= 0 0)) (>= (- (str.indexof (str.substr uri 10 (- (str.len uri) 10)) "/" 0) 0) 0)) (>= 12 0)) (>= (- (str.len (str.substr (str.substr uri 10 (- (str.len uri) 10)) 0 (- (str.indexof (str.substr uri 10 (- (str.len uri) 10)) "/" 0) 0))) 12) 0)) (>= 10 0)) (>= (- (str.len uri) 10) 0)) (>= 10 0)) (>= (- (str.len uri) 10) 0)) (>= 0 0)) (>= (- (str.indexof (str.substr uri 10 (- (str.len uri) 10)) "/" 0) 0) 0)) (>= 10 0)) (>= (- (str.len uri) 10) 0)) (>= 10 0)) (>= (- (str.len uri) 10) 0)) (>= 0 0)) (>= (- (str.indexof (str.substr uri 10 (- (str.len uri) 10)) "/" 0) 0) 0)) (>= 12 0)) (>= (- (str.len (str.substr (str.substr uri 10 (- (str.len uri) 10)) 0 (- (str.indexof (str.substr uri 10 (- (str.len uri) 10)) "/" 0) 0))) 12) 0)) (>= 10 0)) (>= (- (str.len uri) 10) 0)) (>= 10 0)) (>= (- (str.len uri) 10) 0)) (>= 0 0)) (>= (- (str.indexof (str.substr uri 10 (- (str.len uri) 10)) "/" 0) 0) 0)) (>= 10 0)) (>= (- (str.len uri) 10) 0)) (>= 10 0)) (>= (- (str.len uri) 10) 0)) (>= 0 0)) (>= (- (str.indexof (str.substr uri 10 (- (str.len uri) 10)) "/" 0) 0) 0)) (>= 12 0)) (>= (- (str.len (str.substr (str.substr uri 10 (- (str.len uri) 10)) 0 (- (str.indexof (str.substr uri 10 (- (str.len uri) 10)) "/" 0) 0))) 12) 0)) (>= 10 0)) (>= (- (str.len uri) 10) 0)) (>= 10 0)) (>= (- (str.len uri) 10) 0)) (>= 0 0)) (>= (- (str.indexof (str.substr uri 10 (- (str.len uri) 10)) "/" 0) 0) 0)) (>= 10 0)) (>= (- (str.len uri) 10) 0)) (>= 10 0)) (>= (- (str.len uri) 10) 0)) (>= 0 0)) (>= (- (str.indexof (str.substr uri 10 (- (str.len uri) 10)) "/" 0) 0) 0)) (>= 12 0)) (>= (- (str.len (str.substr (str.substr uri 10 (- (str.len uri) 10)) 0 (- (str.indexof (str.substr uri 10 (- (str.len uri) 10)) "/" 0) 0))) 12) 0)) (>= 10 0)) (>= (- (str.len uri) 10) 0)) (>= 10 0)) (>= (- (str.len uri) 10) 0)) (>= 0 0)) (>= (- (str.indexof (str.substr uri 10 (- (str.len uri) 10)) "/" 0) 0) 0)) (>= 0 0)) (>= (- 11 0) 0)) (>= 10 0)) (>= (- (str.len uri) 10) 0)) (>= 10 0)) (>= (- (str.len uri) 10) 0)) (>= 0 0)) (>= (- (str.indexof (str.substr uri 10 (- (str.len uri) 10)) "/" 0) 0) 0)) (>= 0 0)) (>= (- 11 0) 0)) (>= 10 0)) (>= (- (str.len uri) 10) 0)) (>= 10 0)) (>= (- (str.len uri) 10) 0)) (>= 0 0)) (>= (- (str.indexof (str.substr uri 10 (- (str.len uri) 10)) "/" 0) 0) 0)) (>= 0 0)) (>= (- 11 0) 0)) (>= 10 0)) (>= (- (str.len uri) 10) 0)) (>= 10 0)) (>= (- (str.len uri) 10) 0)) (>= 0 0)) (>= (- (str.indexof (str.substr uri 10 (- (str.len uri) 10)) "/" 0) 0) 0)) (>= 0 0)) (>= (- 11 0) 0)) (>= 10 0)) (>= (- (str.len uri) 10) 0)) (>= 10 0)) (>= (- (str.len uri) 10) 0)) (>= 0 0)) (>= (- (str.indexof (str.substr uri 10 (- (str.len uri) 10)) "/" 0) 0) 0)) (>= 0 0)) (>= (- 11 0) 0)) (>= 10 0)) (>= (- (str.len uri) 10) 0)) (>= 10 0)) (>= (- (str.len uri) 10) 0)) (>= 0 0)) (>= (- (str.indexof (str.substr uri 10 (- (str.len uri) 10)) "/" 0) 0) 0)) (>= 0 0)) (>= (- 11 0) 0)) (>= 10 0)) (>= (- (str.len uri) 10) 0)) (>= 10 0)) (>= (- (str.len uri) 10) 0)) (>= 0 0)) (>= (- (str.indexof (str.substr uri 10 (- (str.len uri) 10)) "/" 0) 0) 0)) (>= 0 0)) (>= (- 11 0) 0)) (>= 10 0)) (>= (- (str.len uri) 10) 0)) (>= 10 0)) (>= (- (str.len uri) 10) 0)) (>= 0 0)) (>= (- (str.indexof (str.substr uri 10 (- (str.len uri) 10)) "/" 0) 0) 0)) (>= 10 0)) (>= (- (str.len uri) 10) 0)) (>= 10 0)) (>= (- (str.len uri) 10) 0)) (>= 10 0)) (>= (- (str.len uri) 10) 0)) (>= (+ (str.indexof (str.substr uri 10 (- (str.len uri) 10)) "/" 0) 1) 0)) (>= (- (str.len (str.substr uri 10 (- (str.len uri) 10))) (+ (str.indexof (str.substr uri 10 (- (str.len uri) 10)) "/" 0) 1)) 0)) (>= 10 0)) (>= (- (str.len uri) 10) 0)) (>= 10 0)) (>= (- (str.len uri) 10) 0)) (>= 10 0)) (>= (- (str.len uri) 10) 0)) (>= (+ (str.indexof (str.substr uri 10 (- (str.len uri) 10)) "/" 0) 1) 0)) (>= (- (str.len (str.substr uri 10 (- (str.len uri) 10))) (+ (str.indexof (str.substr uri 10 (- (str.len uri) 10)) "/" 0) 1)) 0)) (>= 10 0)) (>= (- (str.len uri) 10) 0)) (>= 10 0)) (>= (- (str.len uri) 10) 0)) (>= 10 0)) (>= (- (str.len uri) 10) 0)) (>= 10 0)) (>= (- (str.len uri) 10) 0)))
(check-sat)

(exit)
